
Gurobi 6.5.2 (win64) logging started 07/24/16 17:23:34


Gurobi 6.5.2 (win64) logging started 07/24/16 17:23:34

Optimize a model with 1589 rows, 544 columns and 4214 nonzeros
Coefficient statistics:
  Matrix range    [6e-08, 1e+03]
  Objective range [1e+00, 1e+00]
  Bounds range    [1e+00, 1e+00]
  RHS range       [6e-06, 2e+03]
Presolve removed 1386 rows and 330 columns
Presolve time: 0.00s
Presolved: 203 rows, 214 columns, 903 nonzeros
Variable types: 214 continuous, 0 integer (0 binary)

Root relaxation: objective 1.771903e+01, 248 iterations, 0.00 seconds

    Nodes    |    Current Node    |     Objective Bounds      |     Work
 Expl Unexpl |  Obj  Depth IntInf | Incumbent    BestBd   Gap | It/Node Time

*    0     0               0      17.7190324   17.71903  0.00%     -    0s

Explored 0 nodes (248 simplex iterations) in 0.00 seconds
Thread count was 8 (of 8 available processors)

Optimal solution found (tolerance 1.00e-04)
Best objective 1.771903244092e+01, best bound 1.771903244092e+01, gap 0.0%

Wrote requested result file 'H1\instance1\\Results1EC_Sol3.lp'

